
Gurobi 7.5.2 (linux64) logging started Sat Jul  7 16:00:19 2018

Changed value of parameter LogFile to result/ilp/simNo_8-n_100-m_40-s_4-minVAF_0.05-cov_10000-k_2-fn_0.10-fp_0.0001-na_0.15.ILP.gurobiSolverLog
   Prev: gurobi.log  Default: 
Changed value of parameter TimeLimit to 86400.0
   Prev: 1e+100  Min: 0.0  Max: 1e+100  Default: 1e+100
Optimize a model with 639293 rows, 10765 columns and 1940420 nonzeros
Variable types: 0 continuous, 10765 integer (10765 binary)
Coefficient statistics:
  Matrix range     [3e-04, 4e+00]
  Objective range  [7e-01, 9e+00]
  Bounds range     [1e+00, 1e+00]
  RHS range        [2e-01, 2e+00]
Found heuristic solution: objective -14768.49973
Presolve removed 132396 rows and 1019 columns (presolve time = 5s) ...
Presolve removed 132970 rows and 1019 columns (presolve time = 12s) ...
Presolve removed 190370 rows and 1593 columns (presolve time = 17s) ...
Presolve removed 190370 rows and 1593 columns
Presolve time: 17.48s
Presolved: 448923 rows, 9172 columns, 1349101 nonzeros
Variable types: 0 continuous, 9172 integer (9172 binary)
Presolved: 9172 rows, 458095 columns, 1358273 nonzeros

Presolve removed 9172 rows and 458095 columns

Root simplex log...

Iteration    Objective       Primal Inf.    Dual Inf.      Time
       0    1.6810450e+01   0.000000e+00   7.179900e+04     21s
   21307   -2.5789795e+02   0.000000e+00   0.000000e+00     24s
   21307   -2.5789795e+02   0.000000e+00   0.000000e+00     25s

Root relaxation: objective -2.578980e+02, 21307 iterations, 6.48 seconds
Total elapsed time = 50.64s
Total elapsed time = 74.63s
Total elapsed time = 95.50s
Total elapsed time = 107.79s

    Nodes    |    Current Node    |     Objective Bounds      |     Work
 Expl Unexpl |  Obj  Depth IntInf | Incumbent    BestBd   Gap | It/Node Time

     0     0 -257.89795    0 1077 -14768.500 -257.89795  98.3%     -  115s
H    0     0                    -385.9402693 -257.89795  33.2%     -  118s
H    0     0                    -328.3714647 -257.89795  21.5%     -  120s
     0     0 -263.22862    0 1099 -328.37146 -263.22862  19.8%     -  180s
     0     0 -265.52901    0 1166 -328.37146 -265.52901  19.1%     -  241s
H    0     0                    -326.5754546 -265.52901  18.7%     -  251s
     0     0 -265.52901    0 1165 -326.57545 -265.52901  18.7%     -  253s
     0     0 -266.59515    0 1170 -326.57545 -266.59515  18.4%     -  273s
     0     0 -266.59515    0 1168 -326.57545 -266.59515  18.4%     -  278s
     0     0 -268.25900    0 1183 -326.57545 -268.25900  17.9%     -  306s
H    0     0                    -320.8449253 -268.25900  16.4%     -  315s
     0     0 -271.30868    0 1205 -320.84493 -271.30868  15.4%     -  420s
     0     0 -271.30868    0 1212 -320.84493 -271.30868  15.4%     -  430s
     0     0 -273.44095    0 1111 -320.84493 -273.44095  14.8%     -  580s
H    0     0                    -316.5803919 -273.44095  13.6%     -  592s
     0     0 -273.70748    0 1106 -316.58039 -273.70748  13.5%     -  618s
     0     0 -273.70748    0 1115 -316.58039 -273.70748  13.5%     -  622s
     0     0 -274.95609    0 1040 -316.58039 -274.95609  13.1%     -  715s
     0     0 -274.95609    0 1050 -316.58039 -274.95609  13.1%     -  726s
     0     0 -275.66860    0 1290 -316.58039 -275.66860  12.9%     -  836s
     0     0 -275.88656    0 1230 -316.58039 -275.88656  12.9%     -  873s
     0     0 -275.89491    0 1331 -316.58039 -275.89491  12.9%     -  882s
     0     0 -276.16031    0 1237 -316.58039 -276.16031  12.8%     -  894s
     0     0 -276.16031    0 1227 -316.58039 -276.16031  12.8%     -  897s
     0     0 -277.24156    0 1148 -316.58039 -277.24156  12.4%     -  961s
H    0     0                    -312.3158586 -277.24156  11.2%     -  972s
     0     0 -277.30807    0 1234 -312.31586 -277.30807  11.2%     -  998s
     0     0 -277.32310    0 1264 -312.31586 -277.32310  11.2%     - 1005s
     0     0 -277.32310    0 1275 -312.31586 -277.32310  11.2%     - 1010s
     0     0 -278.11262    0 1141 -312.31586 -278.11262  11.0%     - 1178s
H    0     0                    -308.0513252 -278.11262  9.72%     - 1185s
     0     0 -278.31976    0 1085 -308.05133 -278.31976  9.65%     - 1205s
     0     0 -278.31976    0 1085 -308.05133 -278.31976  9.65%     - 1208s
     0     0 -280.67438    0  928 -308.05133 -280.67438  8.89%     - 1811s
     0     0 -280.67438    0  928 -308.05133 -280.67438  8.89%     - 1824s
     0     0 -281.84169    0  999 -308.05133 -281.84169  8.51%     - 2445s
     0     0 -281.91581    0  987 -308.05133 -281.91581  8.48%     - 2540s
     0     0 -281.91581    0  990 -308.05133 -281.91581  8.48%     - 2544s
     0     0 -281.95339    0 1037 -308.05133 -281.95339  8.47%     - 2693s
H    0     0                    -307.4852674 -281.95339  8.30%     - 2705s
     0     0 -282.38881    0 1431 -307.48527 -282.38881  8.16%     - 2995s
     0     0 -282.40775    0 1003 -307.48527 -282.40775  8.16%     - 3018s
     0     0 -282.40775    0 1003 -307.48527 -282.40775  8.16%     - 3021s
     0     0 -283.28178    0  962 -307.48527 -283.28178  7.87%     - 3589s
     0     0 -283.52280    0 1429 -307.48527 -283.52280  7.79%     - 3758s
     0     0 -283.52667    0 1428 -307.48527 -283.52667  7.79%     - 3772s
     0     0 -283.52667    0 1433 -307.48527 -283.52667  7.79%     - 3775s
     0     0 -284.91020    0 1428 -307.48527 -284.91020  7.34%     - 4775s
H    0     0                    -307.0487979 -284.91020  7.21%     - 4784s
     0     0 -284.91407    0 1428 -307.04880 -284.91407  7.21%     - 4789s
     0     0 -284.91769    0 1427 -307.04880 -284.91769  7.21%     - 4801s
     0     0 -284.91769    0 1428 -307.04880 -284.91769  7.21%     - 4803s
     0     0 -285.74766    0  978 -307.04880 -285.74766  6.94%     - 5217s
     0     0 -285.86856    0 1435 -307.04880 -285.86856  6.90%     - 5297s
     0     0 -285.95883    0 1078 -307.04880 -285.95883  6.87%     - 5351s
     0     0 -285.98031    0 1030 -307.04880 -285.98031  6.86%     - 5368s
     0     0 -285.98031    0 1032 -307.04880 -285.98031  6.86%     - 5373s
     0     0 -286.47712    0 1079 -307.04880 -286.47712  6.70%     - 5656s
     0     0 -286.87621    0 1040 -307.04880 -286.87621  6.57%     - 6800s
     0     0 -286.87625    0 1140 -307.04880 -286.87625  6.57%     - 6810s
     0     0 -287.05117    0  981 -307.04880 -287.05117  6.51%     - 7033s
H    0     0                    -304.9165312 -287.05117  5.86%     - 7042s
     0     0 -287.09623    0  945 -304.91653 -287.09623  5.84%     - 7325s
     0     0 -287.09623    0  937 -304.91653 -287.09623  5.84%     - 7330s
     0     0 -287.20535    0 1024 -304.91653 -287.20535  5.81%     - 8122s
     0     0 -287.44043    0 1127 -304.91653 -287.44043  5.73%     - 9978s
     0     0 -287.56688    0 1128 -304.91653 -287.56688  5.69%     - 10017s
     0     0 -287.58994    0 1066 -304.91653 -287.58994  5.68%     - 10047s
     0     0 -287.59262    0 1086 -304.91653 -287.59262  5.68%     - 10070s
     0     0 -288.16237    0  919 -304.91653 -288.16237  5.49%     - 12501s
     0     0 -288.16237    0  918 -304.91653 -288.16237  5.49%     - 12508s
     0     0 -288.32841    0 1444 -304.91653 -288.32841  5.44%     - 13217s
     0     0 -288.41518    0 1078 -304.91653 -288.41518  5.41%     - 13310s
     0     0 -288.41518    0 1083 -304.91653 -288.41518  5.41%     - 13314s
     0     0 -288.90866    0  999 -304.91653 -288.90866  5.25%     - 13683s
     0     0 -289.28431    0 1029 -304.91653 -289.28431  5.13%     - 14097s
     0     0 -289.29454    0 1149 -304.91653 -289.29454  5.12%     - 14170s
     0     0 -289.29709    0 1057 -304.91653 -289.29709  5.12%     - 14186s
     0     0 -289.74367    0 1049 -304.91653 -289.74367  4.98%     - 16438s
     0     0 -289.85678    0 1081 -304.91653 -289.85678  4.94%     - 16750s
     0     0 -289.86578    0 1082 -304.91653 -289.86578  4.94%     - 16763s
     0     0 -289.87180    0 1087 -304.91653 -289.87180  4.93%     - 16772s
     0     0 -289.87180    0 1087 -304.91653 -289.87180  4.93%     - 16775s
     0     0 -289.95052    0 1053 -304.91653 -289.95052  4.91%     - 17138s
     0     0 -290.21545    0 1486 -304.91653 -290.21545  4.82%     - 17875s
     0     0 -290.36738    0 1028 -304.91653 -290.36738  4.77%     - 18035s
     0     0 -290.42806    0 1068 -304.91653 -290.42806  4.75%     - 18234s
     0     0 -290.45786    0 1074 -304.91653 -290.45786  4.74%     - 18245s
     0     0 -290.45786    0 1074 -304.91653 -290.45786  4.74%     - 18247s
     0     0 -290.54597    0 1486 -304.91653 -290.54597  4.71%     - 18460s
     0     0 -290.62739    0 1127 -304.91653 -290.62739  4.69%     - 18561s
     0     0 -290.62739    0 1116 -304.91653 -290.62739  4.69%     - 18566s
     0     0 -290.62739    0 1122 -304.91653 -290.62739  4.69%     - 18580s
     0     0 -290.86442    0 1142 -304.91653 -290.86442  4.61%     - 20171s
     0     0 -290.95867    0 1120 -304.91653 -290.95867  4.58%     - 20326s
     0     0 -291.01507    0 1129 -304.91653 -291.01507  4.56%     - 20339s
     0     0 -291.04555    0 1154 -304.91653 -291.04555  4.55%     - 20353s
     0     0 -291.04555    0 1154 -304.91653 -291.04555  4.55%     - 20355s
     0     0 -291.50034    0 1152 -304.91653 -291.50034  4.40%     - 22765s
     0     0 -291.57914    0 1101 -304.91653 -291.57914  4.37%     - 22780s
     0     0 -291.63046    0 1125 -304.91653 -291.63046  4.36%     - 22809s
     0     0 -291.78368    0 1127 -304.91653 -291.78368  4.31%     - 23243s
     0     0 -291.78368    0 1129 -304.91653 -291.78368  4.31%     - 23246s
     0     0 -292.22297    0 1068 -304.91653 -292.22297  4.16%     - 25017s
     0     0 -292.80029    0 1082 -304.91653 -292.80029  3.97%     - 26954s
     0     0 -292.93066    0 1087 -304.91653 -292.93066  3.93%     - 27022s
     0     0 -292.93066    0 1091 -304.91653 -292.93066  3.93%     - 27028s
     0     0 -292.93066    0 1086 -304.91653 -292.93066  3.93%     - 27036s
     0     0 -292.93066    0 1086 -304.91653 -292.93066  3.93%     - 27045s
     0     0 -292.98095    0 1072 -304.91653 -292.98095  3.91%     - 27135s
     0     0 -293.07184    0 1094 -304.91653 -293.07184  3.88%     - 27389s
     0     0 -293.38640    0 1134 -304.91653 -293.38640  3.78%     - 28670s
     0     0 -293.40684    0 1082 -304.91653 -293.40684  3.77%     - 28705s
     0     0 -293.44476    0 1088 -304.91653 -293.44476  3.76%     - 29300s
     0     0 -293.45714    0 1092 -304.91653 -293.45714  3.76%     - 29433s
     0     0 -293.45909    0 1080 -304.91653 -293.45909  3.76%     - 29444s
     0     0 -293.73451    0  975 -304.91653 -293.73451  3.67%     - 30523s
     0     0 -293.80630    0 1080 -304.91653 -293.80630  3.64%     - 30699s
     0     0 -293.81544    0 1087 -304.91653 -293.81544  3.64%     - 30705s
     0     0 -293.81851    0 1089 -304.91653 -293.81851  3.64%     - 30725s
     0     0 -293.82731    0 1090 -304.91653 -293.82731  3.64%     - 30788s
     0     0 -293.90752    0 1071 -304.91653 -293.90752  3.61%     - 30914s
     0     0 -293.90752    0 1074 -304.91653 -293.90752  3.61%     - 30917s
     0     0 -293.90752    0 1077 -304.91653 -293.90752  3.61%     - 30927s
     0     0 -293.90752    0 1077 -304.91653 -293.90752  3.61%     - 30935s
     0     0 -293.90752    0 1076 -304.91653 -293.90752  3.61%     - 30941s
     0     0 -293.90752    0 1079 -304.91653 -293.90752  3.61%     - 30949s
     0     0 -293.90752    0 1048 -304.91653 -293.90752  3.61%     - 31430s
     0     0 -293.90752    0 1047 -304.91653 -293.90752  3.61%     - 31477s
     0     2 -293.90762    0 1047 -304.91653 -293.90762  3.61%     - 31640s
     2     4 -293.92195    2 1415 -304.91653 -293.91109  3.61%  2340 31647s
     3     5 -295.06822    3  789 -304.91653 -293.91109  3.61%  1968 31651s
     5     7 -296.71154    5  704 -304.91653 -293.91109  3.61%  1344 31655s
     7     7     cutoff    6      -304.91653 -293.91109  3.61%  1507 31662s
     8     8 -297.77768    7  701 -304.91653 -293.91109  3.61%  1336 31670s
    11     9 -300.62070    8  728 -304.91653 -293.91109  3.61%  1161 31676s
    15    11 -301.68683   11  716 -304.91653 -293.91109  3.61%   905 31680s
    23    11     cutoff   15      -304.91653 -293.91109  3.61%   618 31685s
    25    13 -304.19294   17  631 -304.91653 -293.91109  3.61%   571 31690s
    30    12 -294.96833    2  789 -304.91653 -293.91129  3.61%   589 31708s
    31    13 -299.42584    3  460 -304.91653 -293.91129  3.61%  1596 32134s
    32    14 -299.72436    4  457 -304.91653 -293.91129  3.61%  1896 32328s
    33    13     cutoff    4      -304.91653 -293.91129  3.61% 19519 54522s

Cutting planes:
  Gomory: 2
  Zero half: 202

Explored 34 nodes (2092472 simplex iterations) in 86400.33 seconds
Thread count was 1 (of 80 available processors)

Solution count 10: -304.917 -307.049 -307.485 ... -385.94

Time limit reached
Best objective -3.049165312375e+02, best bound -2.939112909958e+02, gap 3.6093%
